lbl,CUST NO.,READY TIME,XCOORD.,YCOORD.,DEMAND,DUE DATE,SERVICE TIME
6,20,33,103,69,30,213,90
6,41,39,109,71,20,219,90
6,85,132,112,71,20,312,90
6,80,223,113,71,10,403,90
6,31,315,113,69,20,495,90
6,25,408,112,67,10,588,90
6,172,499,111,66,20,679,90
6,77,590,110,66,10,770,90
6,110,684,107,63,30,864,90
6,162,780,102,60,30,960,90
